Geometry = GenFormat {
19  C
C
1      1     14.395982228695804      7.707291891124471      9.000000000000000
2      1     14.193337049085672      6.309099163396819      9.000000000000000
3      1     11.452209048625475     16.144437107804812      9.000000000000000
4      1     13.776020306768142      8.881245486932066      9.000000000000000
5      1     15.002241886764898     11.886242652930864      9.000000000000000
6      1     10.316257684953481     13.948789135562489      9.000000000000000
7      1     12.716691621146440     11.278626765579681      9.000000000000000
8      1     11.772064713136411     11.780605987262813      9.000000000000000
9      1      8.591601118281760      9.787764875507442      9.000000000000000
10     1      9.920510754685226     12.719656852530747      9.000000000000000
11     1      7.463002882026812      8.996720828341621      9.000000000000000
12     1     13.615761887754273     10.033136548608908      9.000000000000000
13     1      8.620700651653907     12.166602014142882      9.000000000000000
14     1      9.133838581630737     10.838231900703018      9.000000000000000
15     1     13.861360826871987     11.140504240693049      9.000000000000000
16     1     11.320892045930952     13.125003341825707      9.000000000000000
17     1     11.123627895646157     14.701985353576752      9.000000000000000
18     1     10.103461966542810     15.561169404746222      9.000000000000000
19     1     10.422957288433752     11.400697555393577      9.000000000000000
}
Driver = ConjugateGradient {
  MaxForceComponent = 1E-4
  MaxSteps = 0
  LatticeOpt = No
  MovedAtoms = "1:-1"
  OutputPrefix = "geo_end"
  AppendGeometries = No
  ConvergentForcesOnly = Yes
  Constraints = {}
}
Hamiltonian = DFTB {
  Charge = 0.000000
  Eigensolver = Standard {}
  Filling = Fermi {
    Temperature [Kelvin] = 0.000000
  }
  MaxAngularMomentum = {
    C = "p"
  }
  SCC = No
  SlaterKosterFiles = Type2FileNames {
    Prefix = /home/groves/DFT/dftb_parameters/probAlreadyhave/
    Separator = "-"
    Suffix = ".skf"
    LowerCaseTypeName = No
  }
  PolynomialRepulsive = {}
  OldRepulsiveSum = No
  OrbitalResolvedSCC = No
  OldSKInterpolation = No
  Dispersion = {}
  ThirdOrder = No
  ThirdOrderFull = No
}
Options = {
  WriteResultsTag = Yes
  MullikenAnalysis = No
  WriteEigenvectors = No
  WriteAutotestTag = No
  WriteDetailedXML = No
  WriteDetailedOut = Yes
  WriteBandOut = Yes
  AtomResolvedEnergies = No
  RandomSeed = 0
  WriteHS = No
  WriteRealHS = No
  MinimiseMemoryUsage = No
  ShowFoldedCoords = No
}
ParserOptions = {
  IgnoreUnprocessedNodes = Yes
  ParserVersion = 4
  WriteHSDInput = Yes
  WriteXMLInput = No
  StopAfterParsing = No
}
Analysis = {
  ProjectStates = {}
}
