Geometry = GenFormat { 
    <<< "geo_end.gen" 
} 
 
Driver = ConjugateGradient{ 
   MaxForceComponent = 1E-4 
   MaxSteps = 1000 
   } 
Hamiltonian = DFTB{ 
   MaxAngularMomentum = { 
      H = "s" 
      O = "p" 
   } 
   SlaterKosterFiles = Type2FileNames{ 
      Prefix = ./ 
      Separator = "-" 
      Suffix = ".skf" 
   } 
} 
Options { 
   WriteResultsTag = Yes  
} 
ParserOptions { 
   IgnoreUnprocessedNodes = Yes  
} 
