Geometry = GenFormat {
24  C
C
1      1     13.950274314103327      8.726161012633476      9.000000000000000
2      1     10.232266816871940     15.469379304774050      9.000000000000000
3      1     13.347860991985845     10.127256189038009      9.000000000000000
4      1     13.368192459517548     13.375152234212655      9.000000000000000
5      1      9.481446915975052     13.429583458720222      9.000000000000000
6      1     10.777989382368858      9.816968577106929      9.000000000000000
7      1     11.129675149974618     13.324176653928669      9.000000000000000
8      1      9.261906522423196     12.786044048904719      9.000000000000000
9      1     12.599171073458253     13.372499813793423      9.000000000000000
10     1     12.776951716023063     11.499601807452025      9.000000000000000
11     1      8.359782206118744     10.019355232451234      9.000000000000000
12     1      8.596715382063003     10.742419036199360      9.000000000000000
13     1     15.346343920589970     10.723433441805254      9.000000000000000
14     1     11.116366874388378     11.303669898764708      9.000000000000000
15     1     13.066695518336751     10.816816560716326      9.000000000000000
16     1      9.965622750871486     14.774789205455686      9.000000000000000
17     1      9.709109969753769     14.089906190905898      9.000000000000000
18     1     10.937636586030598     10.567492992869639      9.000000000000000
19     1     14.133353817421540     13.358071724647786      9.000000000000000
20     1     11.861582678526503     13.377731005474907      9.000000000000000
21     1      9.044030737139677     12.121339699999256      9.000000000000000
22     1     13.642841825968436      9.425536740682862      9.000000000000000
23     1      8.822209191376283     11.442925653088500      9.000000000000000
24     1     11.587970039414660     12.685487603101024      9.000000000000000
}
Driver = ConjugateGradient {
  MaxForceComponent = 1E-4
  MaxSteps = 0
  LatticeOpt = No
  MovedAtoms = "1:-1"
  OutputPrefix = "geo_end"
  AppendGeometries = No
  ConvergentForcesOnly = Yes
  Constraints = {}
}
Hamiltonian = DFTB {
  Charge = 0.000000
  Eigensolver = Standard {}
  Filling = Fermi {
    Temperature [Kelvin] = 0.000000
  }
  MaxAngularMomentum = {
    C = "p"
  }
  SCC = No
  SlaterKosterFiles = Type2FileNames {
    Prefix = /home/groves/DFT/dftb_parameters/probAlreadyhave/
    Separator = "-"
    Suffix = ".skf"
    LowerCaseTypeName = No
  }
  PolynomialRepulsive = {}
  OldRepulsiveSum = No
  OrbitalResolvedSCC = No
  OldSKInterpolation = No
  Dispersion = {}
  ThirdOrder = No
  ThirdOrderFull = No
}
Options = {
  WriteResultsTag = Yes
  MullikenAnalysis = No
  WriteEigenvectors = No
  WriteAutotestTag = No
  WriteDetailedXML = No
  WriteDetailedOut = Yes
  WriteBandOut = Yes
  AtomResolvedEnergies = No
  RandomSeed = 0
  WriteHS = No
  WriteRealHS = No
  MinimiseMemoryUsage = No
  ShowFoldedCoords = No
}
ParserOptions = {
  IgnoreUnprocessedNodes = Yes
  ParserVersion = 4
  WriteHSDInput = Yes
  WriteXMLInput = No
  StopAfterParsing = No
}
Analysis = {
  ProjectStates = {}
}
