Geometry = GenFormat {
19  C
C
1      1     12.889064791204643     14.260861788251882      9.000000000000000
2      1     10.778130071714399      8.253379580643617      9.000000000000000
3      1     12.033700519652891     13.212960060666971      9.000000000000000
4      1     10.551495388686948     10.734031102844265      9.000000000000000
5      1     10.795496918298030     13.860413293985275      9.000000000000000
6      1      9.406384963611170     13.654139541554114      9.000000000000000
7      1     13.763971424606662      9.264790799064642      9.000000000000000
8      1      9.172891023385104     10.997028120316521      9.000000000000000
9      1     14.584671129756966     10.368838994942394      9.000000000000000
10     1     14.077156377487830     11.721516270189957      9.000000000000000
11     1      9.010040255692369      9.523308176563495      9.000000000000000
12     1     11.570120922479685     15.092768446878290      9.000000000000000
13     1     15.851805361967120     10.913988870818306      9.000000000000000
14     1      8.751820801576327     12.375411323709704      9.000000000000000
15     1     11.342981081632079     11.993556194654431      9.000000000000000
16     1     11.150168994275093      9.495704308697166      9.000000000000000
17     1     12.407160144532661      9.623942310940873      9.000000000000000
18     1     13.601271449794135     13.024749803687314      9.000000000000000
19     1      9.435663679690119      8.207563827389357      9.000000000000000
}
Driver = ConjugateGradient {
  MaxForceComponent = 1E-4
  MaxSteps = 0
  LatticeOpt = No
  MovedAtoms = "1:-1"
  OutputPrefix = "geo_end"
  AppendGeometries = No
  ConvergentForcesOnly = Yes
  Constraints = {}
}
Hamiltonian = DFTB {
  Charge = 0.000000
  Eigensolver = Standard {}
  Filling = Fermi {
    Temperature [Kelvin] = 0.000000
  }
  MaxAngularMomentum = {
    C = "p"
  }
  SCC = No
  SlaterKosterFiles = Type2FileNames {
    Prefix = /home/groves/DFT/dftb_parameters/probAlreadyhave/
    Separator = "-"
    Suffix = ".skf"
    LowerCaseTypeName = No
  }
  PolynomialRepulsive = {}
  OldRepulsiveSum = No
  OrbitalResolvedSCC = No
  OldSKInterpolation = No
  Dispersion = {}
  ThirdOrder = No
  ThirdOrderFull = No
}
Options = {
  WriteResultsTag = Yes
  MullikenAnalysis = No
  WriteEigenvectors = No
  WriteAutotestTag = No
  WriteDetailedXML = No
  WriteDetailedOut = Yes
  WriteBandOut = Yes
  AtomResolvedEnergies = No
  RandomSeed = 0
  WriteHS = No
  WriteRealHS = No
  MinimiseMemoryUsage = No
  ShowFoldedCoords = No
}
ParserOptions = {
  IgnoreUnprocessedNodes = Yes
  ParserVersion = 4
  WriteHSDInput = Yes
  WriteXMLInput = No
  StopAfterParsing = No
}
Analysis = {
  ProjectStates = {}
}
