Geometry = GenFormat {
24  C
C
1      1     10.317779066908054     13.633759741960798      9.000000000000000
2      1      9.642395474237862     14.932282171347046      9.000000000000000
3      1     14.573750710081116      9.705598675046948      9.000000000000000
4      1     14.814464803963919     11.682026517296205      9.000000000000000
5      1      8.846877262765876      8.863111882370566      9.000000000000000
6      1     12.609638760463577      8.247550502267583      9.000000000000000
7      1     13.969177037601606      8.430818251249089      9.000000000000000
8      1     14.137878356764624     12.983757982794238      9.000000000000000
9      1     11.297914872610525     10.420983696760318      9.000000000000000
10     1      9.736657716866281     12.464821082406274      9.000000000000000
11     1     12.315939080751114     15.312120861690479      9.000000000000000
12     1     13.707834071128756     10.775605509003794      9.000000000000000
13     1     15.713594419797579     10.612403497991862      9.000000000000000
14     1     12.381844881940529     11.247220130537908      9.000000000000000
15     1     14.763520593556560     14.242218104571483      9.000000000000000
16     1     10.080175979331791     11.035433797589368      9.000000000000000
17     1      8.172589562434128     12.518931820596508      9.000000000000000
18     1     11.401445047802586      9.016991722224079      9.000000000000000
19     1     10.133162251615730      8.224363859425354      9.000000000000000
20     1      7.549177081631047     11.132138382455558      9.000000000000000
21     1     11.340911289526924     12.936435896694281      9.000000000000000
22     1     12.674155276494426     12.632494594611174      9.000000000000000
23     1     12.001923145965934     13.934013586050188      9.000000000000000
24     1      8.770898124629364     10.306794919806688      9.000000000000000
}
Driver = ConjugateGradient {
  MaxForceComponent = 1E-4
  MaxSteps = 0
  LatticeOpt = No
  MovedAtoms = "1:-1"
  OutputPrefix = "geo_end"
  AppendGeometries = No
  ConvergentForcesOnly = Yes
  Constraints = {}
}
Hamiltonian = DFTB {
  Charge = 0.000000
  Eigensolver = Standard {}
  Filling = Fermi {
    Temperature [Kelvin] = 0.000000
  }
  MaxAngularMomentum = {
    C = "p"
  }
  SCC = No
  SlaterKosterFiles = Type2FileNames {
    Prefix = /home/groves/DFT/dftb_parameters/probAlreadyhave/
    Separator = "-"
    Suffix = ".skf"
    LowerCaseTypeName = No
  }
  PolynomialRepulsive = {}
  OldRepulsiveSum = No
  OrbitalResolvedSCC = No
  OldSKInterpolation = No
  Dispersion = {}
  ThirdOrder = No
  ThirdOrderFull = No
}
Options = {
  WriteResultsTag = Yes
  MullikenAnalysis = No
  WriteEigenvectors = No
  WriteAutotestTag = No
  WriteDetailedXML = No
  WriteDetailedOut = Yes
  WriteBandOut = Yes
  AtomResolvedEnergies = No
  RandomSeed = 0
  WriteHS = No
  WriteRealHS = No
  MinimiseMemoryUsage = No
  ShowFoldedCoords = No
}
ParserOptions = {
  IgnoreUnprocessedNodes = Yes
  ParserVersion = 4
  WriteHSDInput = Yes
  WriteXMLInput = No
  StopAfterParsing = No
}
Analysis = {
  ProjectStates = {}
}
